NAME          
ROWS
 N  OBJ
 L  c1
 L  c2
 L  c3
COLUMNS
    MARKER    'MARKER'                 'INTORG'
    x[1]      c1        838
    x[1]      c2        961
    x[1]      c3        348
    x[1]      OBJ       -584
    x[2]      c1        507
    x[2]      c2        588
    x[2]      c3        709
    x[2]      OBJ       -774
    x[3]      c1        327
    x[3]      c2        962
    x[3]      c3        21
    x[3]      OBJ       -460
    x[4]      c1        378
    x[4]      c2        250
    x[4]      c3        93
    x[4]      OBJ       -835
    x[5]      c1        193
    x[5]      c2        680
    x[5]      c3        661
    x[5]      OBJ       -671
    x[6]      c1        695
    x[6]      c2        893
    x[6]      c3        487
    x[6]      OBJ       -644
    x[7]      c1        281
    x[7]      c2        818
    x[7]      c3        737
    x[7]      OBJ       -419
    x[8]      c1        511
    x[8]      c2        74
    x[8]      c3        250
    x[8]      OBJ       -77
    x[9]      c1        413
    x[9]      c2        60
    x[9]      c3        841
    x[9]      OBJ       -851
    x[10]     c1        836
    x[10]     c2        742
    x[10]     c3        158
    x[10]     OBJ       -912
    x[11]     c1        830
    x[11]     c2        968
    x[11]     c3        1000
    x[11]     OBJ       -395
    x[12]     c1        831
    x[12]     c2        936
    x[12]     c3        464
    x[12]     OBJ       -618
    x[13]     c1        43
    x[13]     c2        642
    x[13]     c3        886
    x[13]     OBJ       -448
    x[14]     c1        796
    x[14]     c2        837
    x[14]     c3        263
    x[14]     OBJ       -756
    x[15]     c1        563
    x[15]     c2        106
    x[15]     c3        923
    x[15]     OBJ       -632
RHS
    rhs       c1        4021
    rhs       c2        4758
    rhs       c3        3920
RANGES
BOUNDS
 BV bounds    x[1]
 BV bounds    x[2]
 BV bounds    x[3]
 BV bounds    x[4]
 BV bounds    x[5]
 BV bounds    x[6]
 BV bounds    x[7]
 BV bounds    x[8]
 BV bounds    x[9]
 BV bounds    x[10]
 BV bounds    x[11]
 BV bounds    x[12]
 BV bounds    x[13]
 BV bounds    x[14]
 BV bounds    x[15]
ENDATA
